30
1 0 35
2 0 9
2 1 9
3 0 22
3 1 30
3 2 50
4 0 42
4 1 38
4 2 19
4 3 27
5 0 39
5 1 3
5 2 18
5 3 5
5 4 2
6 0 15
6 1 46
6 2 34
6 3 13
6 4 16
6 5 27
7 0 37
7 1 36
7 2 11
7 3 1
7 4 35
7 5 4
7 6 41
8 0 33
8 1 34
8 2 44
8 3 30
8 4 9
8 5 48
8 6 27
8 7 3
9 0 14
9 1 4
9 2 7
9 3 7
9 4 5
9 5 21
9 6 50
9 7 5
9 8 15
10 0 5
10 1 14
10 2 18
10 3 13
10 4 4
10 5 49
10 6 44
10 7 35
10 8 49
10 9 38
11 0 48
11 1 30
11 2 9
11 3 45
11 4 2
11 5 25
11 6 44
11 7 5
11 8 25
11 9 18
11 10 25
12 0 38
12 1 21
12 2 18
12 3 17
12 4 23
12 5 17
12 6 45
12 7 22
12 8 10
12 9 42
12 10 6
12 11 21
13 0 50
13 1 50
13 2 44
13 3 5
13 4 36
13 5 37
13 6 10
13 7 29
13 8 19
13 9 33
13 10 13
13 11 11
13 12 11
14 0 6
14 1 44
14 2 11
14 3 7
14 4 9
14 5 32
14 6 10
14 7 34
14 8 11
14 9 19
14 10 37
14 11 10
14 12 2
14 13 29
15 0 41
15 1 12
15 2 31
15 3 46
15 4 30
15 5 6
15 6 8
15 7 5
15 8 5
15 9 13
15 10 50
15 11 23
15 12 32
15 13 35
15 14 18
16 0 14
16 1 46
16 2 48
16 3 12
16 4 28
16 5 25
16 6 7
16 7 35
16 8 49
16 9 34
16 10 45
16 11 22
16 12 41
16 13 16
16 14 30
16 15 33
17 0 29
17 1 42
17 2 4
17 3 4
17 4 18
17 5 27
17 6 21
17 7 3
17 8 3
17 9 17
17 10 49
17 11 3
17 12 10
17 13 44
17 14 29
17 15 41
17 16 45
18 0 2
18 1 6
18 2 1
18 3 16
18 4 23
18 5 44
18 6 20
18 7 18
18 8 4
18 9 24
18 10 25
18 11 37
18 12 15
18 13 26
18 14 17
18 15 31
18 16 50
18 17 31
19 0 15
19 1 21
19 2 31
19 3 5
19 4 10
19 5 17
19 6 2
19 7 28
19 8 43
19 9 50
19 10 40
19 11 9
19 12 32
19 13 50
19 14 8
19 15 20
19 16 29
19 17 22
19 18 47
20 0 21
20 1 3
20 2 31
20 3 4
20 4 32
20 5 16
20 6 22
20 7 11
20 8 46
20 9 12
20 10 19
20 11 11
20 12 13
20 13 49
20 14 45
20 15 45
20 16 22
20 17 32
20 18 33
20 19 33
21 0 30
21 1 46
21 2 1
21 3 42
21 4 37
21 5 27
21 6 36
21 7 38
21 8 40
21 9 35
21 10 22
21 11 49
21 12 34
21 13 50
21 14 50
21 15 4
21 16 14
21 17 31
21 18 6
21 19 11
21 20 31
22 0 31
22 1 8
22 2 46
22 3 28
22 4 28
22 5 11
22 6 10
22 7 25
22 8 2
22 9 23
22 10 45
22 11 13
22 12 32
22 13 33
22 14 27
22 15 5
22 16 20
22 17 6
22 18 25
22 19 19
22 20 3
22 21 38
23 0 50
23 1 12
23 2 15
23 3 42
23 4 24
23 5 38
23 6 49
23 7 26
23 8 2
23 9 49
23 10 50
23 11 22
23 12 10
23 13 47
23 14 23
23 15 48
23 16 17
23 17 37
23 18 47
23 19 33
23 20 50
23 21 49
23 22 16
24 0 9
24 1 35
24 2 24
24 3 22
24 4 43
24 5 13
24 6 40
24 7 15
24 8 18
24 9 49
24 10 45
24 11 48
24 12 13
24 13 32
24 14 25
24 15 50
24 16 30
24 17 15
24 18 24
24 19 19
24 20 36
24 21 4
24 22 14
24 23 5
25 0 32
25 1 11
25 2 35
25 3 40
25 4 9
25 5 42
25 6 5
25 7 20
25 8 19
25 9 26
25 10 4
25 11 21
25 12 43
25 13 19
25 14 3
25 15 12
25 16 21
25 17 30
25 18 16
25 19 49
25 20 37
25 21 9
25 22 34
25 23 25
25 24 9
26 0 28
26 1 21
26 2 16
26 3 49
26 4 24
26 5 31
26 6 9
26 7 13
26 8 4
26 9 32
26 10 12
26 11 39
26 12 4
26 13 26
26 14 31
26 15 14
26 16 37
26 17 36
26 18 37
26 19 46
26 20 39
26 21 8
26 22 49
26 23 47
26 24 18
26 25 39
27 0 31
27 1 42
27 2 5
27 3 40
27 4 31
27 5 30
27 6 28
27 7 28
27 8 5
27 9 25
27 10 29
27 11 39
27 12 41
27 13 1
27 14 26
27 15 10
27 16 7
27 17 25
27 18 16
27 19 16
27 20 5
27 21 36
27 22 44
27 23 25
27 24 33
27 25 19
27 26 6
28 0 35
28 1 5
28 2 24
28 3 40
28 4 36
28 5 22
28 6 44
28 7 47
28 8 23
28 9 2
28 10 18
28 11 17
28 12 40
28 13 48
28 14 19
28 15 42
28 16 2
28 17 30
28 18 47
28 19 38
28 20 3
28 21 42
28 22 26
28 23 13
28 24 24
28 25 29
28 26 2
28 27 13
29 0 25
29 1 19
29 2 41
29 3 47
29 4 28
29 5 43
29 6 36
29 7 31
29 8 23
29 9 29
29 10 25
29 11 43
29 12 47
29 13 5
29 14 42
29 15 19
29 16 39
29 17 7
29 18 16
29 19 8
29 20 41
29 21 45
29 22 28
29 23 40
29 24 31
29 25 14
29 26 34
29 27 46
29 28 25
